22668 17226 100 98 97 96 95 93 92 90 89 88 87 86 85 84 82 81 80 78 77 76 75 74 73 72 70 69 68 67 66 63 62 60 59 58 56 55 54 53 50 49 46 45 44 42 41 40 39 38 37 35 32 31 30 28 27 26 25 24 23 21 19 16 15 14 13 12 11 10 9 8 7 6 5 4 3 2 